proyfinal/src/viki/013/andrea/andrea-localstore/experimentInOfficeAgust.take6/worker_9/d7a22ff7-a406-43f8-a582-05a28b312af2.als.cnf.out
Reading from standard input... Use '--help' for help.
============================[ Problem Statistics ]=============================
|                                                                             |
|  Number of variables:         87638                                         |
|  Number of clauses:          161767                                         |
|  Parse time:                   0.04 s                                       |
|                                                                             |
============================[ Search Statistics ]==============================
| Conflicts |          ORIGINAL         |          LEARNT          | Progress |
|           |    Vars  Clauses Literals |    Limit  Clauses Lit/Cl |          |
===============================================================================
|       100 |   62727   106468   265964 |    39038      100     11 | 28.425 % |
|       250 |   62727   106468   265964 |    42942      250     56 | 28.425 % |
|       475 |   62727   106468   265964 |    47236      475     78 | 28.425 % |
|       812 |   62691   106336   265616 |    51959      799     78 | 28.466 % |
|      1318 |   62691   106336   265616 |    57155     1305     62 | 28.466 % |
|      2077 |   62690   106292   265526 |    62871     2063     79 | 28.467 % |
|      3216 |   62690   106292   265526 |    69158     3202     80 | 28.467 % |
|      4924 |   62690   106292   265526 |    76074     4910     79 | 28.467 % |
|      7486 |   62690   106292   265526 |    83681     7472     88 | 28.467 % |
|     11330 |   62668   106200   265315 |    92050    11293     87 | 28.492 % |
|     17096 |   52229    73824   185608 |   101255    14001     80 | 40.404 % |
===============================================================================
restarts              : 63
conflicts             : 17566          (7658 /sec)
decisions             : 54097          (0.00 % random) (23583 /sec)
propagations          : 22043238       (9609565 /sec)
conflict literals     : 1344145        (50.28 % deleted)
Memory used           : 37.25 MB
CPU time              : 2.29388 s

UNSATISFIABLE
